c CNF-Signature AND_10
c 
c $p 10 1
c $m (1,2,3,4,5,6,7,8,9,10,11)
c $i 1
c $i 2
c $i 3
c $i 4
c $i 5
c $i 6
c $i 7
c $i 8
c $i 9
c $i 10
c $o 11
p cnf 11 11
1 -11 0
2 -11 0
3 -11 0
4 -11 0
5 -11 0
6 -11 0
7 -11 0
8 -11 0
9 -11 0
10 -11 0
-1 -2 -3 -4 -5 -6 -7 -8 -9 -10 11 0
